c A SAT instance generated from a 3-CNF formula that had 40 clauses and 10 variables
p cnf 10 40
2 -10 -8 0
-3 9 -7 0
5 -3 7 0
5 3 -1 0
-7 5 9 0
-1 5 -3 0
-4 -2 -6 0
9 -8 10 0
3 -5 -6 0
-1 7 8 0
-9 1 -3 0
-7 -5 1 0
-1 4 6 0
-4 9 6 0
-10 2 -8 0
-2 -9 -5 0
9 -2 6 0
8 4 -7 0
9 6 -2 0
-8 -7 6 0
-4 9 7 0
-4 5 2 0
-7 -9 5 0
-9 2 1 0
6 5 -1 0
-1 -7 5 0
-6 -1 3 0
9 -6 -10 0
1 3 -8 0
8 10 3 0
-2 1 -4 0
-1 -7 -5 0
2 -8 -4 0
7 6 9 0
-7 -4 8 0
-4 5 7 0
-8 10 -2 0
-6 1 -9 0
-4 9 3 0
-1 -3 9 0
